; benchmark generated from python API
(set-info :status unknown)
(declare-fun cell_1_3 () Int)
(declare-fun cell_1_6 () Int)
(declare-fun cell_2_6 () Int)
(declare-fun cell_2_8 () Int)
(declare-fun cell_3_3 () Int)
(declare-fun cell_3_9 () Int)
(declare-fun cell_4_4 () Int)
(declare-fun cell_4_5 () Int)
(declare-fun cell_5_8 () Int)
(declare-fun cell_6_1 () Int)
(declare-fun cell_7_4 () Int)
(declare-fun cell_8_2 () Int)
(declare-fun cell_9_7 () Int)
(declare-fun cell_1_1 () Int)
(declare-fun cell_2_1 () Int)
(declare-fun cell_3_1 () Int)
(declare-fun cell_4_1 () Int)
(declare-fun cell_5_1 () Int)
(declare-fun cell_7_1 () Int)
(declare-fun cell_8_1 () Int)
(declare-fun cell_9_1 () Int)
(declare-fun cell_1_2 () Int)
(declare-fun cell_2_2 () Int)
(declare-fun cell_3_2 () Int)
(declare-fun cell_4_2 () Int)
(declare-fun cell_5_2 () Int)
(declare-fun cell_6_2 () Int)
(declare-fun cell_7_2 () Int)
(declare-fun cell_9_2 () Int)
(declare-fun cell_2_3 () Int)
(declare-fun cell_4_3 () Int)
(declare-fun cell_5_3 () Int)
(declare-fun cell_6_3 () Int)
(declare-fun cell_7_3 () Int)
(declare-fun cell_8_3 () Int)
(declare-fun cell_9_3 () Int)
(declare-fun cell_1_4 () Int)
(declare-fun cell_2_4 () Int)
(declare-fun cell_3_4 () Int)
(declare-fun cell_5_4 () Int)
(declare-fun cell_6_4 () Int)
(declare-fun cell_8_4 () Int)
(declare-fun cell_9_4 () Int)
(declare-fun cell_1_5 () Int)
(declare-fun cell_2_5 () Int)
(declare-fun cell_3_5 () Int)
(declare-fun cell_5_5 () Int)
(declare-fun cell_6_5 () Int)
(declare-fun cell_7_5 () Int)
(declare-fun cell_8_5 () Int)
(declare-fun cell_9_5 () Int)
(declare-fun cell_3_6 () Int)
(declare-fun cell_4_6 () Int)
(declare-fun cell_5_6 () Int)
(declare-fun cell_6_6 () Int)
(declare-fun cell_7_6 () Int)
(declare-fun cell_8_6 () Int)
(declare-fun cell_9_6 () Int)
(declare-fun cell_1_7 () Int)
(declare-fun cell_2_7 () Int)
(declare-fun cell_3_7 () Int)
(declare-fun cell_4_7 () Int)
(declare-fun cell_5_7 () Int)
(declare-fun cell_6_7 () Int)
(declare-fun cell_7_7 () Int)
(declare-fun cell_8_7 () Int)
(declare-fun cell_1_8 () Int)
(declare-fun cell_3_8 () Int)
(declare-fun cell_4_8 () Int)
(declare-fun cell_6_8 () Int)
(declare-fun cell_7_8 () Int)
(declare-fun cell_8_8 () Int)
(declare-fun cell_9_8 () Int)
(declare-fun cell_1_9 () Int)
(declare-fun cell_2_9 () Int)
(declare-fun cell_4_9 () Int)
(declare-fun cell_5_9 () Int)
(declare-fun cell_6_9 () Int)
(declare-fun cell_7_9 () Int)
(declare-fun cell_8_9 () Int)
(declare-fun cell_9_9 () Int)
(assert
 (= cell_1_3 1))
(assert
 (= cell_1_6 2))
(assert
 (= cell_2_6 1))
(assert
 (= cell_2_8 2))
(assert
 (= cell_3_3 2))
(assert
 (= cell_3_9 1))
(assert
 (= cell_4_4 2))
(assert
 (= cell_4_5 1))
(assert
 (= cell_5_8 1))
(assert
 (= cell_6_1 1))
(assert
 (= cell_7_4 1))
(assert
 (= cell_8_2 1))
(assert
 (= cell_9_7 1))
(assert
 (let (($x1753 (= cell_1_1 9)))
 (let (($x912 (= cell_1_1 8)))
 (let (($x1387 (= cell_1_1 7)))
 (let (($x722 (= cell_1_1 6)))
 (let (($x2915 (= cell_1_1 5)))
 (let (($x193 (= cell_1_1 4)))
 (let (($x2519 (= cell_1_1 3)))
 (let (($x189 (= cell_1_1 2)))
 (let (($x2727 (= cell_1_1 1)))
 (or $x2727 $x189 $x2519 $x193 $x2915 $x722 $x1387 $x912 $x1753)))))))))))
(assert
 (let (($x3445 (= cell_2_1 9)))
 (let (($x24 (= cell_2_1 8)))
 (let (($x645 (= cell_2_1 7)))
 (let (($x274 (= cell_2_1 6)))
 (let (($x694 (= cell_2_1 5)))
 (let (($x1850 (= cell_2_1 4)))
 (let (($x413 (= cell_2_1 3)))
 (let (($x103 (= cell_2_1 2)))
 (let (($x1428 (= cell_2_1 1)))
 (or $x1428 $x103 $x413 $x1850 $x694 $x274 $x645 $x24 $x3445)))))))))))
(assert
 (let (($x774 (= cell_3_1 9)))
 (let (($x1616 (= cell_3_1 8)))
 (let (($x475 (= cell_3_1 7)))
 (let (($x1453 (= cell_3_1 6)))
 (let (($x3492 (= cell_3_1 5)))
 (let (($x2934 (= cell_3_1 4)))
 (let (($x2042 (= cell_3_1 3)))
 (let (($x2332 (= cell_3_1 2)))
 (let (($x1052 (= cell_3_1 1)))
 (or $x1052 $x2332 $x2042 $x2934 $x3492 $x1453 $x475 $x1616 $x774)))))))))))
(assert
 (let (($x2930 (= cell_4_1 9)))
 (let (($x1357 (= cell_4_1 8)))
 (let (($x3483 (= cell_4_1 7)))
 (let (($x1876 (= cell_4_1 6)))
 (let (($x768 (= cell_4_1 5)))
 (let (($x3220 (= cell_4_1 4)))
 (let (($x141 (= cell_4_1 3)))
 (let (($x2205 (= cell_4_1 2)))
 (let (($x2489 (= cell_4_1 1)))
 (or $x2489 $x2205 $x141 $x3220 $x768 $x1876 $x3483 $x1357 $x2930)))))))))))
(assert
 (let (($x300 (= cell_5_1 9)))
 (let (($x1302 (= cell_5_1 8)))
 (let (($x1345 (= cell_5_1 7)))
 (let (($x2940 (= cell_5_1 6)))
 (let (($x3021 (= cell_5_1 5)))
 (let (($x2936 (= cell_5_1 4)))
 (let (($x83 (= cell_5_1 3)))
 (let (($x737 (= cell_5_1 2)))
 (let (($x905 (= cell_5_1 1)))
 (or $x905 $x737 $x83 $x2936 $x3021 $x2940 $x1345 $x1302 $x300)))))))))))
(assert
 (let (($x1984 (= cell_6_1 1)))
 (or $x1984 (= cell_6_1 2) (= cell_6_1 3) (= cell_6_1 4) (= cell_6_1 5) (= cell_6_1 6) (= cell_6_1 7) (= cell_6_1 8) (= cell_6_1 9))))
(assert
 (let (($x697 (= cell_7_1 9)))
 (let (($x786 (= cell_7_1 8)))
 (let (($x2015 (= cell_7_1 7)))
 (let (($x1748 (= cell_7_1 6)))
 (let (($x505 (= cell_7_1 5)))
 (let (($x2802 (= cell_7_1 4)))
 (let (($x2402 (= cell_7_1 3)))
 (let (($x209 (= cell_7_1 2)))
 (let (($x711 (= cell_7_1 1)))
 (or $x711 $x209 $x2402 $x2802 $x505 $x1748 $x2015 $x786 $x697)))))))))))
(assert
 (let (($x2228 (= cell_8_1 9)))
 (let (($x1315 (= cell_8_1 8)))
 (let (($x1554 (= cell_8_1 7)))
 (let (($x1759 (= cell_8_1 6)))
 (let (($x3499 (= cell_8_1 5)))
 (let (($x1660 (= cell_8_1 4)))
 (let (($x486 (= cell_8_1 3)))
 (let (($x2813 (= cell_8_1 2)))
 (let (($x2274 (= cell_8_1 1)))
 (or $x2274 $x2813 $x486 $x1660 $x3499 $x1759 $x1554 $x1315 $x2228)))))))))))
(assert
 (let (($x1418 (= cell_9_1 9)))
 (let (($x443 (= cell_9_1 8)))
 (let (($x1350 (= cell_9_1 7)))
 (let (($x2834 (= cell_9_1 6)))
 (let (($x1978 (= cell_9_1 5)))
 (let (($x2512 (= cell_9_1 4)))
 (let (($x1402 (= cell_9_1 3)))
 (let (($x1614 (= cell_9_1 2)))
 (let (($x2869 (= cell_9_1 1)))
 (or $x2869 $x1614 $x1402 $x2512 $x1978 $x2834 $x1350 $x443 $x1418)))))))))))
(assert
 (let (($x509 (= cell_1_2 9)))
 (let (($x612 (= cell_1_2 8)))
 (let (($x994 (= cell_1_2 7)))
 (let (($x3402 (= cell_1_2 6)))
 (let (($x2510 (= cell_1_2 5)))
 (let (($x1806 (= cell_1_2 4)))
 (let (($x1662 (= cell_1_2 3)))
 (let (($x405 (= cell_1_2 2)))
 (let (($x2137 (= cell_1_2 1)))
 (or $x2137 $x405 $x1662 $x1806 $x2510 $x3402 $x994 $x612 $x509)))))))))))
(assert
 (let (($x1954 (= cell_2_2 9)))
 (let (($x502 (= cell_2_2 8)))
 (let (($x1283 (= cell_2_2 7)))
 (let (($x1336 (= cell_2_2 6)))
 (let (($x3508 (= cell_2_2 5)))
 (let (($x1946 (= cell_2_2 4)))
 (let (($x969 (= cell_2_2 3)))
 (let (($x242 (= cell_2_2 2)))
 (let (($x1640 (= cell_2_2 1)))
 (or $x1640 $x242 $x969 $x1946 $x3508 $x1336 $x1283 $x502 $x1954)))))))))))
(assert
 (let (($x945 (= cell_3_2 9)))
 (let (($x182 (= cell_3_2 8)))
 (let (($x1183 (= cell_3_2 7)))
 (let (($x101 (= cell_3_2 6)))
 (let (($x2605 (= cell_3_2 5)))
 (let (($x449 (= cell_3_2 4)))
 (let (($x435 (= cell_3_2 3)))
 (let (($x871 (= cell_3_2 2)))
 (let (($x2214 (= cell_3_2 1)))
 (or $x2214 $x871 $x435 $x449 $x2605 $x101 $x1183 $x182 $x945)))))))))))
(assert
 (let (($x1185 (= cell_4_2 9)))
 (let (($x2619 (= cell_4_2 8)))
 (let (($x527 (= cell_4_2 7)))
 (let (($x1565 (= cell_4_2 6)))
 (let (($x1628 (= cell_4_2 5)))
 (let (($x373 (= cell_4_2 4)))
 (let (($x1138 (= cell_4_2 3)))
 (let (($x1940 (= cell_4_2 2)))
 (let (($x2844 (= cell_4_2 1)))
 (or $x2844 $x1940 $x1138 $x373 $x1628 $x1565 $x527 $x2619 $x1185)))))))))))
(assert
 (let (($x1574 (= cell_5_2 9)))
 (let (($x3171 (= cell_5_2 8)))
 (let (($x403 (= cell_5_2 7)))
 (let (($x1287 (= cell_5_2 6)))
 (let (($x2114 (= cell_5_2 5)))
 (let (($x1924 (= cell_5_2 4)))
 (let (($x419 (= cell_5_2 3)))
 (let (($x492 (= cell_5_2 2)))
 (let (($x2487 (= cell_5_2 1)))
 (or $x2487 $x492 $x419 $x1924 $x2114 $x1287 $x403 $x3171 $x1574)))))))))))
(assert
 (let (($x226 (= cell_6_2 9)))
 (let (($x705 (= cell_6_2 8)))
 (let (($x1750 (= cell_6_2 7)))
 (let (($x2176 (= cell_6_2 6)))
 (let (($x391 (= cell_6_2 5)))
 (let (($x1456 (= cell_6_2 4)))
 (let (($x2783 (= cell_6_2 3)))
 (let (($x2328 (= cell_6_2 2)))
 (let (($x2454 (= cell_6_2 1)))
 (or $x2454 $x2328 $x2783 $x1456 $x391 $x2176 $x1750 $x705 $x226)))))))))))
(assert
 (let (($x534 (= cell_7_2 9)))
 (let (($x599 (= cell_7_2 8)))
 (let (($x2538 (= cell_7_2 7)))
 (let (($x3146 (= cell_7_2 6)))
 (let (($x2398 (= cell_7_2 5)))
 (let (($x462 (= cell_7_2 4)))
 (let (($x1470 (= cell_7_2 3)))
 (let (($x1030 (= cell_7_2 2)))
 (let (($x179 (= cell_7_2 1)))
 (or $x179 $x1030 $x1470 $x462 $x2398 $x3146 $x2538 $x599 $x534)))))))))))
(assert
 (let (($x634 (= cell_8_2 1)))
 (or $x634 (= cell_8_2 2) (= cell_8_2 3) (= cell_8_2 4) (= cell_8_2 5) (= cell_8_2 6) (= cell_8_2 7) (= cell_8_2 8) (= cell_8_2 9))))
(assert
 (let (($x1461 (= cell_9_2 9)))
 (let (($x2325 (= cell_9_2 8)))
 (let (($x2365 (= cell_9_2 7)))
 (let (($x624 (= cell_9_2 6)))
 (let (($x1156 (= cell_9_2 5)))
 (let (($x1995 (= cell_9_2 4)))
 (let (($x1063 (= cell_9_2 3)))
 (let (($x644 (= cell_9_2 2)))
 (let (($x2275 (= cell_9_2 1)))
 (or $x2275 $x644 $x1063 $x1995 $x1156 $x624 $x2365 $x2325 $x1461)))))))))))
(assert
 (let (($x1669 (= cell_1_3 1)))
 (or $x1669 (= cell_1_3 2) (= cell_1_3 3) (= cell_1_3 4) (= cell_1_3 5) (= cell_1_3 6) (= cell_1_3 7) (= cell_1_3 8) (= cell_1_3 9))))
(assert
 (let (($x225 (= cell_2_3 9)))
 (let (($x3601 (= cell_2_3 8)))
 (let (($x2321 (= cell_2_3 7)))
 (let (($x947 (= cell_2_3 6)))
 (let (($x2900 (= cell_2_3 5)))
 (let (($x2622 (= cell_2_3 4)))
 (let (($x930 (= cell_2_3 3)))
 (let (($x1021 (= cell_2_3 2)))
 (let (($x1211 (= cell_2_3 1)))
 (or $x1211 $x1021 $x930 $x2622 $x2900 $x947 $x2321 $x3601 $x225)))))))))))
(assert
 (let (($x902 (= cell_3_3 2)))
 (or (= cell_3_3 1) $x902 (= cell_3_3 3) (= cell_3_3 4) (= cell_3_3 5) (= cell_3_3 6) (= cell_3_3 7) (= cell_3_3 8) (= cell_3_3 9))))
(assert
 (let (($x794 (= cell_4_3 9)))
 (let (($x741 (= cell_4_3 8)))
 (let (($x1612 (= cell_4_3 7)))
 (let (($x2156 (= cell_4_3 6)))
 (let (($x1804 (= cell_4_3 5)))
 (let (($x51 (= cell_4_3 4)))
 (let (($x456 (= cell_4_3 3)))
 (let (($x1883 (= cell_4_3 2)))
 (let (($x412 (= cell_4_3 1)))
 (or $x412 $x1883 $x456 $x51 $x1804 $x2156 $x1612 $x741 $x794)))))))))))
(assert
 (let (($x780 (= cell_5_3 9)))
 (let (($x20 (= cell_5_3 8)))
 (let (($x44 (= cell_5_3 7)))
 (let (($x3089 (= cell_5_3 6)))
 (let (($x1650 (= cell_5_3 5)))
 (let (($x3190 (= cell_5_3 4)))
 (let (($x1509 (= cell_5_3 3)))
 (let (($x1445 (= cell_5_3 2)))
 (let (($x1342 (= cell_5_3 1)))
 (or $x1342 $x1445 $x1509 $x3190 $x1650 $x3089 $x44 $x20 $x780)))))))))))
(assert
 (let (($x1884 (= cell_6_3 2)))
 (let (($x578 (= cell_6_3 1)))
 (or $x578 $x1884 (= cell_6_3 3) (= cell_6_3 4) (= cell_6_3 5) (= cell_6_3 6) (= cell_6_3 7) (= cell_6_3 8) (= cell_6_3 9)))))
(assert
 (let (($x2705 (= cell_7_3 9)))
 (let (($x1657 (= cell_7_3 8)))
 (let (($x146 (= cell_7_3 7)))
 (let (($x2889 (= cell_7_3 6)))
 (let (($x2048 (= cell_7_3 5)))
 (let (($x1919 (= cell_7_3 4)))
 (let (($x2893 (= cell_7_3 3)))
 (let (($x1882 (= cell_7_3 2)))
 (let (($x2352 (= cell_7_3 1)))
 (or $x2352 $x1882 $x2893 $x1919 $x2048 $x2889 $x146 $x1657 $x2705)))))))))))
(assert
 (let (($x1813 (= cell_8_3 2)))
 (let (($x2758 (= cell_8_3 1)))
 (or $x2758 $x1813 (= cell_8_3 3) (= cell_8_3 4) (= cell_8_3 5) (= cell_8_3 6) (= cell_8_3 7) (= cell_8_3 8) (= cell_8_3 9)))))
(assert
 (let (($x2337 (= cell_9_3 9)))
 (let (($x2343 (= cell_9_3 8)))
 (let (($x1447 (= cell_9_3 7)))
 (let (($x1420 (= cell_9_3 6)))
 (let (($x2597 (= cell_9_3 5)))
 (let (($x1802 (= cell_9_3 4)))
 (let (($x1595 (= cell_9_3 3)))
 (let (($x2904 (= cell_9_3 2)))
 (let (($x2421 (= cell_9_3 1)))
 (or $x2421 $x2904 $x1595 $x1802 $x2597 $x1420 $x1447 $x2343 $x2337)))))))))))
(assert
 (let (($x2790 (= cell_1_4 9)))
 (let (($x1259 (= cell_1_4 8)))
 (let (($x104 (= cell_1_4 7)))
 (let (($x2206 (= cell_1_4 6)))
 (let (($x1108 (= cell_1_4 5)))
 (let (($x94 (= cell_1_4 4)))
 (let (($x2918 (= cell_1_4 3)))
 (let (($x2985 (= cell_1_4 2)))
 (let (($x674 (= cell_1_4 1)))
 (or $x674 $x2985 $x2918 $x94 $x1108 $x2206 $x104 $x1259 $x2790)))))))))))
(assert
 (let (($x296 (= cell_2_4 9)))
 (let (($x5 (= cell_2_4 8)))
 (let (($x686 (= cell_2_4 7)))
 (let (($x1846 (= cell_2_4 6)))
 (let (($x1171 (= cell_2_4 5)))
 (let (($x1991 (= cell_2_4 4)))
 (let (($x3435 (= cell_2_4 3)))
 (let (($x3521 (= cell_2_4 2)))
 (let (($x244 (= cell_2_4 1)))
 (or $x244 $x3521 $x3435 $x1991 $x1171 $x1846 $x686 $x5 $x296)))))))))))
(assert
 (let (($x749 (= cell_3_4 9)))
 (let (($x1244 (= cell_3_4 8)))
 (let (($x3849 (= cell_3_4 7)))
 (let (($x2614 (= cell_3_4 6)))
 (let (($x2590 (= cell_3_4 5)))
 (let (($x2584 (= cell_3_4 4)))
 (let (($x1344 (= cell_3_4 3)))
 (let (($x3507 (= cell_3_4 2)))
 (let (($x1900 (= cell_3_4 1)))
 (or $x1900 $x3507 $x1344 $x2584 $x2590 $x2614 $x3849 $x1244 $x749)))))))))))
(assert
 (let (($x761 (= cell_4_4 2)))
 (or (= cell_4_4 1) $x761 (= cell_4_4 3) (= cell_4_4 4) (= cell_4_4 5) (= cell_4_4 6) (= cell_4_4 7) (= cell_4_4 8) (= cell_4_4 9))))
(assert
 (let (($x1192 (= cell_5_4 9)))
 (let (($x1367 (= cell_5_4 8)))
 (let (($x2071 (= cell_5_4 7)))
 (let (($x1500 (= cell_5_4 6)))
 (let (($x920 (= cell_5_4 5)))
 (let (($x2280 (= cell_5_4 4)))
 (let (($x2735 (= cell_5_4 3)))
 (let (($x3239 (= cell_5_4 2)))
 (let (($x915 (= cell_5_4 1)))
 (or $x915 $x3239 $x2735 $x2280 $x920 $x1500 $x2071 $x1367 $x1192)))))))))))
(assert
 (let (($x1727 (= cell_6_4 9)))
 (let (($x1148 (= cell_6_4 8)))
 (let (($x2873 (= cell_6_4 7)))
 (let (($x2255 (= cell_6_4 6)))
 (let (($x1290 (= cell_6_4 5)))
 (let (($x169 (= cell_6_4 4)))
 (let (($x1374 (= cell_6_4 3)))
 (let (($x1240 (= cell_6_4 2)))
 (let (($x1488 (= cell_6_4 1)))
 (or $x1488 $x1240 $x1374 $x169 $x1290 $x2255 $x2873 $x1148 $x1727)))))))))))
(assert
 (let (($x2607 (= cell_7_4 1)))
 (or $x2607 (= cell_7_4 2) (= cell_7_4 3) (= cell_7_4 4) (= cell_7_4 5) (= cell_7_4 6) (= cell_7_4 7) (= cell_7_4 8) (= cell_7_4 9))))
(assert
 (let (($x3833 (= cell_8_4 2)))
 (let (($x2631 (= cell_8_4 1)))
 (or $x2631 $x3833 (= cell_8_4 3) (= cell_8_4 4) (= cell_8_4 5) (= cell_8_4 6) (= cell_8_4 7) (= cell_8_4 8) (= cell_8_4 9)))))
(assert
 (let (($x1375 (= cell_9_4 9)))
 (let (($x1359 (= cell_9_4 8)))
 (let (($x1095 (= cell_9_4 7)))
 (let (($x2890 (= cell_9_4 6)))
 (let (($x1469 (= cell_9_4 5)))
 (let (($x3429 (= cell_9_4 4)))
 (let (($x1559 (= cell_9_4 3)))
 (let (($x2360 (= cell_9_4 2)))
 (let (($x2063 (= cell_9_4 1)))
 (or $x2063 $x2360 $x1559 $x3429 $x1469 $x2890 $x1095 $x1359 $x1375)))))))))))
(assert
 (let (($x1835 (= cell_1_5 9)))
 (let (($x535 (= cell_1_5 8)))
 (let (($x2030 (= cell_1_5 7)))
 (let (($x124 (= cell_1_5 6)))
 (let (($x1414 (= cell_1_5 5)))
 (let (($x2514 (= cell_1_5 4)))
 (let (($x1909 (= cell_1_5 3)))
 (let (($x1011 (= cell_1_5 2)))
 (let (($x990 (= cell_1_5 1)))
 (or $x990 $x1011 $x1909 $x2514 $x1414 $x124 $x2030 $x535 $x1835)))))))))))
(assert
 (let (($x2351 (= cell_2_5 9)))
 (let (($x3712 (= cell_2_5 8)))
 (let (($x2811 (= cell_2_5 7)))
 (let (($x2646 (= cell_2_5 6)))
 (let (($x2892 (= cell_2_5 5)))
 (let (($x1338 (= cell_2_5 4)))
 (let (($x1668 (= cell_2_5 3)))
 (let (($x3713 (= cell_2_5 2)))
 (let (($x890 (= cell_2_5 1)))
 (or $x890 $x3713 $x1668 $x1338 $x2892 $x2646 $x2811 $x3712 $x2351)))))))))))
(assert
 (let (($x2078 (= cell_3_5 9)))
 (let (($x1764 (= cell_3_5 8)))
 (let (($x2700 (= cell_3_5 7)))
 (let (($x2080 (= cell_3_5 6)))
 (let (($x2341 (= cell_3_5 5)))
 (let (($x1685 (= cell_3_5 4)))
 (let (($x654 (= cell_3_5 3)))
 (let (($x2565 (= cell_3_5 2)))
 (let (($x2419 (= cell_3_5 1)))
 (or $x2419 $x2565 $x654 $x1685 $x2341 $x2080 $x2700 $x1764 $x2078)))))))))))
(assert
 (let (($x1294 (= cell_4_5 1)))
 (or $x1294 (= cell_4_5 2) (= cell_4_5 3) (= cell_4_5 4) (= cell_4_5 5) (= cell_4_5 6) (= cell_4_5 7) (= cell_4_5 8) (= cell_4_5 9))))
(assert
 (let (($x2290 (= cell_5_5 9)))
 (let (($x1992 (= cell_5_5 8)))
 (let (($x53 (= cell_5_5 7)))
 (let (($x2092 (= cell_5_5 6)))
 (let (($x1828 (= cell_5_5 5)))
 (let (($x1745 (= cell_5_5 4)))
 (let (($x3121 (= cell_5_5 3)))
 (let (($x2845 (= cell_5_5 2)))
 (let (($x888 (= cell_5_5 1)))
 (or $x888 $x2845 $x3121 $x1745 $x1828 $x2092 $x53 $x1992 $x2290)))))))))))
(assert
 (let (($x727 (= cell_6_5 9)))
 (let (($x2760 (= cell_6_5 8)))
 (let (($x1403 (= cell_6_5 7)))
 (let (($x2265 (= cell_6_5 6)))
 (let (($x2358 (= cell_6_5 5)))
 (let (($x1706 (= cell_6_5 4)))
 (let (($x556 (= cell_6_5 3)))
 (let (($x2182 (= cell_6_5 2)))
 (let (($x171 (= cell_6_5 1)))
 (or $x171 $x2182 $x556 $x1706 $x2358 $x2265 $x1403 $x2760 $x727)))))))))))
(assert
 (let (($x2345 (= cell_7_5 1)))
 (or $x2345 (= cell_7_5 2) (= cell_7_5 3) (= cell_7_5 4) (= cell_7_5 5) (= cell_7_5 6) (= cell_7_5 7) (= cell_7_5 8) (= cell_7_5 9))))
(assert
 (let (($x2348 (= cell_8_5 1)))
 (or $x2348 (= cell_8_5 2) (= cell_8_5 3) (= cell_8_5 4) (= cell_8_5 5) (= cell_8_5 6) (= cell_8_5 7) (= cell_8_5 8) (= cell_8_5 9))))
(assert
 (let (($x3167 (= cell_9_5 9)))
 (let (($x75 (= cell_9_5 8)))
 (let (($x910 (= cell_9_5 7)))
 (let (($x395 (= cell_9_5 6)))
 (let (($x2563 (= cell_9_5 5)))
 (let (($x867 (= cell_9_5 4)))
 (let (($x202 (= cell_9_5 3)))
 (let (($x1551 (= cell_9_5 2)))
 (let (($x157 (= cell_9_5 1)))
 (or $x157 $x1551 $x202 $x867 $x2563 $x395 $x910 $x75 $x3167)))))))))))
(assert
 (let (($x2037 (= cell_1_6 2)))
 (or (= cell_1_6 1) $x2037 (= cell_1_6 3) (= cell_1_6 4) (= cell_1_6 5) (= cell_1_6 6) (= cell_1_6 7) (= cell_1_6 8) (= cell_1_6 9))))
(assert
 (let (($x404 (= cell_2_6 1)))
 (or $x404 (= cell_2_6 2) (= cell_2_6 3) (= cell_2_6 4) (= cell_2_6 5) (= cell_2_6 6) (= cell_2_6 7) (= cell_2_6 8) (= cell_2_6 9))))
(assert
 (let (($x1843 (= cell_3_6 9)))
 (let (($x1330 (= cell_3_6 8)))
 (let (($x1422 (= cell_3_6 7)))
 (let (($x380 (= cell_3_6 6)))
 (let (($x2086 (= cell_3_6 5)))
 (let (($x111 (= cell_3_6 4)))
 (let (($x729 (= cell_3_6 3)))
 (let (($x459 (= cell_3_6 2)))
 (let (($x2109 (= cell_3_6 1)))
 (or $x2109 $x459 $x729 $x111 $x2086 $x380 $x1422 $x1330 $x1843)))))))))))
(assert
 (let (($x1427 (= cell_4_6 2)))
 (let (($x1200 (= cell_4_6 1)))
 (or $x1200 $x1427 (= cell_4_6 3) (= cell_4_6 4) (= cell_4_6 5) (= cell_4_6 6) (= cell_4_6 7) (= cell_4_6 8) (= cell_4_6 9)))))
(assert
 (let (($x702 (= cell_5_6 9)))
 (let (($x1857 (= cell_5_6 8)))
 (let (($x367 (= cell_5_6 7)))
 (let (($x842 (= cell_5_6 6)))
 (let (($x1841 (= cell_5_6 5)))
 (let (($x723 (= cell_5_6 4)))
 (let (($x2383 (= cell_5_6 3)))
 (let (($x2113 (= cell_5_6 2)))
 (let (($x604 (= cell_5_6 1)))
 (or $x604 $x2113 $x2383 $x723 $x1841 $x842 $x367 $x1857 $x702)))))))))))
(assert
 (let (($x1085 (= cell_6_6 2)))
 (let (($x1905 (= cell_6_6 1)))
 (or $x1905 $x1085 (= cell_6_6 3) (= cell_6_6 4) (= cell_6_6 5) (= cell_6_6 6) (= cell_6_6 7) (= cell_6_6 8) (= cell_6_6 9)))))
(assert
 (let (($x1515 (= cell_7_6 2)))
 (let (($x1540 (= cell_7_6 1)))
 (or $x1540 $x1515 (= cell_7_6 3) (= cell_7_6 4) (= cell_7_6 5) (= cell_7_6 6) (= cell_7_6 7) (= cell_7_6 8) (= cell_7_6 9)))))
(assert
 (let (($x1769 (= cell_8_6 2)))
 (let (($x1439 (= cell_8_6 1)))
 (or $x1439 $x1769 (= cell_8_6 3) (= cell_8_6 4) (= cell_8_6 5) (= cell_8_6 6) (= cell_8_6 7) (= cell_8_6 8) (= cell_8_6 9)))))
(assert
 (let (($x2197 (= cell_9_6 9)))
 (let (($x1944 (= cell_9_6 8)))
 (let (($x2501 (= cell_9_6 7)))
 (let (($x1941 (= cell_9_6 6)))
 (let (($x3663 (= cell_9_6 5)))
 (let (($x1935 (= cell_9_6 4)))
 (let (($x1818 (= cell_9_6 3)))
 (let (($x1673 (= cell_9_6 2)))
 (let (($x3362 (= cell_9_6 1)))
 (or $x3362 $x1673 $x1818 $x1935 $x3663 $x1941 $x2501 $x1944 $x2197)))))))))))
(assert
 (let (($x480 (= cell_1_7 9)))
 (let (($x2022 (= cell_1_7 8)))
 (let (($x1994 (= cell_1_7 7)))
 (let (($x1312 (= cell_1_7 6)))
 (let (($x1765 (= cell_1_7 5)))
 (let (($x1292 (= cell_1_7 4)))
 (let (($x916 (= cell_1_7 3)))
 (let (($x2773 (= cell_1_7 2)))
 (let (($x755 (= cell_1_7 1)))
 (or $x755 $x2773 $x916 $x1292 $x1765 $x1312 $x1994 $x2022 $x480)))))))))))
(assert
 (let (($x1893 (= cell_2_7 9)))
 (let (($x1791 (= cell_2_7 8)))
 (let (($x38 (= cell_2_7 7)))
 (let (($x1025 (= cell_2_7 6)))
 (let (($x528 (= cell_2_7 5)))
 (let (($x2316 (= cell_2_7 4)))
 (let (($x2855 (= cell_2_7 3)))
 (let (($x1365 (= cell_2_7 2)))
 (let (($x803 (= cell_2_7 1)))
 (or $x803 $x1365 $x2855 $x2316 $x528 $x1025 $x38 $x1791 $x1893)))))))))))
(assert
 (let (($x1950 (= cell_3_7 9)))
 (let (($x746 (= cell_3_7 8)))
 (let (($x420 (= cell_3_7 7)))
 (let (($x1878 (= cell_3_7 6)))
 (let (($x906 (= cell_3_7 5)))
 (let (($x1224 (= cell_3_7 4)))
 (let (($x2371 (= cell_3_7 3)))
 (let (($x2016 (= cell_3_7 2)))
 (let (($x269 (= cell_3_7 1)))
 (or $x269 $x2016 $x2371 $x1224 $x906 $x1878 $x420 $x746 $x1950)))))))))))
(assert
 (let (($x80 (= cell_4_7 9)))
 (let (($x951 (= cell_4_7 8)))
 (let (($x1379 (= cell_4_7 7)))
 (let (($x594 (= cell_4_7 6)))
 (let (($x3202 (= cell_4_7 5)))
 (let (($x591 (= cell_4_7 4)))
 (let (($x3205 (= cell_4_7 3)))
 (let (($x1621 (= cell_4_7 2)))
 (let (($x889 (= cell_4_7 1)))
 (or $x889 $x1621 $x3205 $x591 $x3202 $x594 $x1379 $x951 $x80)))))))))))
(assert
 (let (($x3456 (= cell_5_7 9)))
 (let (($x1772 (= cell_5_7 8)))
 (let (($x540 (= cell_5_7 7)))
 (let (($x870 (= cell_5_7 6)))
 (let (($x160 (= cell_5_7 5)))
 (let (($x3676 (= cell_5_7 4)))
 (let (($x1170 (= cell_5_7 3)))
 (let (($x2733 (= cell_5_7 2)))
 (let (($x440 (= cell_5_7 1)))
 (or $x440 $x2733 $x1170 $x3676 $x160 $x870 $x540 $x1772 $x3456)))))))))))
(assert
 (let (($x2385 (= cell_6_7 9)))
 (let (($x1525 (= cell_6_7 8)))
 (let (($x310 (= cell_6_7 7)))
 (let (($x2840 (= cell_6_7 6)))
 (let (($x425 (= cell_6_7 5)))
 (let (($x2885 (= cell_6_7 4)))
 (let (($x176 (= cell_6_7 3)))
 (let (($x590 (= cell_6_7 2)))
 (let (($x2481 (= cell_6_7 1)))
 (or $x2481 $x590 $x176 $x2885 $x425 $x2840 $x310 $x1525 $x2385)))))))))))
(assert
 (let (($x450 (= cell_7_7 9)))
 (let (($x1613 (= cell_7_7 8)))
 (let (($x1867 (= cell_7_7 7)))
 (let (($x1033 (= cell_7_7 6)))
 (let (($x2827 (= cell_7_7 5)))
 (let (($x574 (= cell_7_7 4)))
 (let (($x2810 (= cell_7_7 3)))
 (let (($x89 (= cell_7_7 2)))
 (let (($x778 (= cell_7_7 1)))
 (or $x778 $x89 $x2810 $x574 $x2827 $x1033 $x1867 $x1613 $x450)))))))))))
(assert
 (let (($x1643 (= cell_8_7 9)))
 (let (($x2858 (= cell_8_7 8)))
 (let (($x2068 (= cell_8_7 7)))
 (let (($x2898 (= cell_8_7 6)))
 (let (($x3528 (= cell_8_7 5)))
 (let (($x1697 (= cell_8_7 4)))
 (let (($x3685 (= cell_8_7 3)))
 (let (($x1541 (= cell_8_7 2)))
 (let (($x1154 (= cell_8_7 1)))
 (or $x1154 $x1541 $x3685 $x1697 $x3528 $x2898 $x2068 $x2858 $x1643)))))))))))
(assert
 (let (($x26 (= cell_9_7 1)))
 (or $x26 (= cell_9_7 2) (= cell_9_7 3) (= cell_9_7 4) (= cell_9_7 5) (= cell_9_7 6) (= cell_9_7 7) (= cell_9_7 8) (= cell_9_7 9))))
(assert
 (let (($x3701 (= cell_1_8 9)))
 (let (($x1493 (= cell_1_8 8)))
 (let (($x2453 (= cell_1_8 7)))
 (let (($x325 (= cell_1_8 6)))
 (let (($x3850 (= cell_1_8 5)))
 (let (($x788 (= cell_1_8 4)))
 (let (($x2814 (= cell_1_8 3)))
 (let (($x2723 (= cell_1_8 2)))
 (let (($x287 (= cell_1_8 1)))
 (or $x287 $x2723 $x2814 $x788 $x3850 $x325 $x2453 $x1493 $x3701)))))))))))
(assert
 (let (($x948 (= cell_2_8 2)))
 (or (= cell_2_8 1) $x948 (= cell_2_8 3) (= cell_2_8 4) (= cell_2_8 5) (= cell_2_8 6) (= cell_2_8 7) (= cell_2_8 8) (= cell_2_8 9))))
(assert
 (let (($x1659 (= cell_3_8 9)))
 (let (($x219 (= cell_3_8 8)))
 (let (($x1266 (= cell_3_8 7)))
 (let (($x563 (= cell_3_8 6)))
 (let (($x2570 (= cell_3_8 5)))
 (let (($x635 (= cell_3_8 4)))
 (let (($x887 (= cell_3_8 3)))
 (let (($x2630 (= cell_3_8 2)))
 (let (($x974 (= cell_3_8 1)))
 (or $x974 $x2630 $x887 $x635 $x2570 $x563 $x1266 $x219 $x1659)))))))))))
(assert
 (let (($x2759 (= cell_4_8 9)))
 (let (($x115 (= cell_4_8 8)))
 (let (($x2824 (= cell_4_8 7)))
 (let (($x1868 (= cell_4_8 6)))
 (let (($x1466 (= cell_4_8 5)))
 (let (($x2910 (= cell_4_8 4)))
 (let (($x3107 (= cell_4_8 3)))
 (let (($x322 (= cell_4_8 2)))
 (let (($x2405 (= cell_4_8 1)))
 (or $x2405 $x322 $x3107 $x2910 $x1466 $x1868 $x2824 $x115 $x2759)))))))))))
(assert
 (let (($x1719 (= cell_5_8 1)))
 (or $x1719 (= cell_5_8 2) (= cell_5_8 3) (= cell_5_8 4) (= cell_5_8 5) (= cell_5_8 6) (= cell_5_8 7) (= cell_5_8 8) (= cell_5_8 9))))
(assert
 (let (($x1381 (= cell_6_8 2)))
 (let (($x76 (= cell_6_8 1)))
 (or $x76 $x1381 (= cell_6_8 3) (= cell_6_8 4) (= cell_6_8 5) (= cell_6_8 6) (= cell_6_8 7) (= cell_6_8 8) (= cell_6_8 9)))))
(assert
 (let (($x1535 (= cell_7_8 9)))
 (let (($x1519 (= cell_7_8 8)))
 (let (($x1056 (= cell_7_8 7)))
 (let (($x1311 (= cell_7_8 6)))
 (let (($x63 (= cell_7_8 5)))
 (let (($x2744 (= cell_7_8 4)))
 (let (($x232 (= cell_7_8 3)))
 (let (($x259 (= cell_7_8 2)))
 (let (($x1606 (= cell_7_8 1)))
 (or $x1606 $x259 $x232 $x2744 $x63 $x1311 $x1056 $x1519 $x1535)))))))))))
(assert
 (let (($x2027 (= cell_8_8 9)))
 (let (($x894 (= cell_8_8 8)))
 (let (($x1851 (= cell_8_8 7)))
 (let (($x60 (= cell_8_8 6)))
 (let (($x442 (= cell_8_8 5)))
 (let (($x958 (= cell_8_8 4)))
 (let (($x2326 (= cell_8_8 3)))
 (let (($x1483 (= cell_8_8 2)))
 (let (($x3781 (= cell_8_8 1)))
 (or $x3781 $x1483 $x2326 $x958 $x442 $x60 $x1851 $x894 $x2027)))))))))))
(assert
 (let (($x1048 (= cell_9_8 2)))
 (let (($x821 (= cell_9_8 1)))
 (or $x821 $x1048 (= cell_9_8 3) (= cell_9_8 4) (= cell_9_8 5) (= cell_9_8 6) (= cell_9_8 7) (= cell_9_8 8) (= cell_9_8 9)))))
(assert
 (let (($x2592 (= cell_1_9 9)))
 (let (($x2618 (= cell_1_9 8)))
 (let (($x2253 (= cell_1_9 7)))
 (let (($x159 (= cell_1_9 6)))
 (let (($x2138 (= cell_1_9 5)))
 (let (($x467 (= cell_1_9 4)))
 (let (($x2315 (= cell_1_9 3)))
 (let (($x691 (= cell_1_9 2)))
 (let (($x1957 (= cell_1_9 1)))
 (or $x1957 $x691 $x2315 $x467 $x2138 $x159 $x2253 $x2618 $x2592)))))))))))
(assert
 (let (($x1201 (= cell_2_9 9)))
 (let (($x1647 (= cell_2_9 8)))
 (let (($x357 (= cell_2_9 7)))
 (let (($x2208 (= cell_2_9 6)))
 (let (($x1099 (= cell_2_9 5)))
 (let (($x1870 (= cell_2_9 4)))
 (let (($x1333 (= cell_2_9 3)))
 (let (($x1329 (= cell_2_9 2)))
 (let (($x2294 (= cell_2_9 1)))
 (or $x2294 $x1329 $x1333 $x1870 $x1099 $x2208 $x357 $x1647 $x1201)))))))))))
(assert
 (let (($x1725 (= cell_3_9 1)))
 (or $x1725 (= cell_3_9 2) (= cell_3_9 3) (= cell_3_9 4) (= cell_3_9 5) (= cell_3_9 6) (= cell_3_9 7) (= cell_3_9 8) (= cell_3_9 9))))
(assert
 (let (($x2324 (= cell_4_9 9)))
 (let (($x227 (= cell_4_9 8)))
 (let (($x2125 (= cell_4_9 7)))
 (let (($x144 (= cell_4_9 6)))
 (let (($x2479 (= cell_4_9 5)))
 (let (($x724 (= cell_4_9 4)))
 (let (($x2765 (= cell_4_9 3)))
 (let (($x210 (= cell_4_9 2)))
 (let (($x1274 (= cell_4_9 1)))
 (or $x1274 $x210 $x2765 $x724 $x2479 $x144 $x2125 $x227 $x2324)))))))))))
(assert
 (let (($x953 (= cell_5_9 1)))
 (or $x953 (= cell_5_9 2) (= cell_5_9 3) (= cell_5_9 4) (= cell_5_9 5) (= cell_5_9 6) (= cell_5_9 7) (= cell_5_9 8) (= cell_5_9 9))))
(assert
 (let (($x257 (= cell_6_9 1)))
 (or $x257 (= cell_6_9 2) (= cell_6_9 3) (= cell_6_9 4) (= cell_6_9 5) (= cell_6_9 6) (= cell_6_9 7) (= cell_6_9 8) (= cell_6_9 9))))
(assert
 (let (($x129 (= cell_7_9 9)))
 (let (($x2604 (= cell_7_9 8)))
 (let (($x1366 (= cell_7_9 7)))
 (let (($x960 (= cell_7_9 6)))
 (let (($x558 (= cell_7_9 5)))
 (let (($x2659 (= cell_7_9 4)))
 (let (($x2011 (= cell_7_9 3)))
 (let (($x1115 (= cell_7_9 2)))
 (let (($x334 (= cell_7_9 1)))
 (or $x334 $x1115 $x2011 $x2659 $x558 $x960 $x1366 $x2604 $x129)))))))))))
(assert
 (let (($x1489 (= cell_8_9 9)))
 (let (($x1656 (= cell_8_9 8)))
 (let (($x2242 (= cell_8_9 7)))
 (let (($x1582 (= cell_8_9 6)))
 (let (($x139 (= cell_8_9 5)))
 (let (($x1586 (= cell_8_9 4)))
 (let (($x2020 (= cell_8_9 3)))
 (let (($x2175 (= cell_8_9 2)))
 (let (($x762 (= cell_8_9 1)))
 (or $x762 $x2175 $x2020 $x1586 $x139 $x1582 $x2242 $x1656 $x1489)))))))))))
(assert
 (let (($x1373 (= cell_9_9 1)))
 (or $x1373 (= cell_9_9 2) (= cell_9_9 3) (= cell_9_9 4) (= cell_9_9 5) (= cell_9_9 6) (= cell_9_9 7) (= cell_9_9 8) (= cell_9_9 9))))
(assert
 (and (distinct cell_1_1 cell_1_2 cell_1_3 cell_1_4 cell_1_5 cell_1_6 cell_1_7 cell_1_8 cell_1_9) true))
(assert
 (and (distinct cell_2_1 cell_2_2 cell_2_3 cell_2_4 cell_2_5 cell_2_6 cell_2_7 cell_2_8 cell_2_9) true))
(assert
 (and (distinct cell_3_1 cell_3_2 cell_3_3 cell_3_4 cell_3_5 cell_3_6 cell_3_7 cell_3_8 cell_3_9) true))
(assert
 (and (distinct cell_4_1 cell_4_2 cell_4_3 cell_4_4 cell_4_5 cell_4_6 cell_4_7 cell_4_8 cell_4_9) true))
(assert
 (and (distinct cell_5_1 cell_5_2 cell_5_3 cell_5_4 cell_5_5 cell_5_6 cell_5_7 cell_5_8 cell_5_9) true))
(assert
 (and (distinct cell_6_1 cell_6_2 cell_6_3 cell_6_4 cell_6_5 cell_6_6 cell_6_7 cell_6_8 cell_6_9) true))
(assert
 (and (distinct cell_7_1 cell_7_2 cell_7_3 cell_7_4 cell_7_5 cell_7_6 cell_7_7 cell_7_8 cell_7_9) true))
(assert
 (and (distinct cell_8_1 cell_8_2 cell_8_3 cell_8_4 cell_8_5 cell_8_6 cell_8_7 cell_8_8 cell_8_9) true))
(assert
 (and (distinct cell_9_1 cell_9_2 cell_9_3 cell_9_4 cell_9_5 cell_9_6 cell_9_7 cell_9_8 cell_9_9) true))
(assert
 (and (distinct cell_1_1 cell_2_1 cell_3_1 cell_4_1 cell_5_1 cell_6_1 cell_7_1 cell_8_1 cell_9_1) true))
(assert
 (and (distinct cell_1_2 cell_2_2 cell_3_2 cell_4_2 cell_5_2 cell_6_2 cell_7_2 cell_8_2 cell_9_2) true))
(assert
 (and (distinct cell_1_3 cell_2_3 cell_3_3 cell_4_3 cell_5_3 cell_6_3 cell_7_3 cell_8_3 cell_9_3) true))
(assert
 (and (distinct cell_1_4 cell_2_4 cell_3_4 cell_4_4 cell_5_4 cell_6_4 cell_7_4 cell_8_4 cell_9_4) true))
(assert
 (and (distinct cell_1_5 cell_2_5 cell_3_5 cell_4_5 cell_5_5 cell_6_5 cell_7_5 cell_8_5 cell_9_5) true))
(assert
 (and (distinct cell_1_6 cell_2_6 cell_3_6 cell_4_6 cell_5_6 cell_6_6 cell_7_6 cell_8_6 cell_9_6) true))
(assert
 (and (distinct cell_1_7 cell_2_7 cell_3_7 cell_4_7 cell_5_7 cell_6_7 cell_7_7 cell_8_7 cell_9_7) true))
(assert
 (and (distinct cell_1_8 cell_2_8 cell_3_8 cell_4_8 cell_5_8 cell_6_8 cell_7_8 cell_8_8 cell_9_8) true))
(assert
 (and (distinct cell_1_9 cell_2_9 cell_3_9 cell_4_9 cell_5_9 cell_6_9 cell_7_9 cell_8_9 cell_9_9) true))
(assert
 (and (distinct cell_1_1 cell_1_2 cell_1_3 cell_2_1 cell_2_2 cell_2_3 cell_3_1 cell_3_2 cell_3_3) true))
(assert
 (and (distinct cell_1_4 cell_1_5 cell_1_6 cell_2_4 cell_2_5 cell_2_6 cell_3_4 cell_3_5 cell_3_6) true))
(assert
 (and (distinct cell_1_7 cell_1_8 cell_1_9 cell_2_7 cell_2_8 cell_2_9 cell_3_7 cell_3_8 cell_3_9) true))
(assert
 (and (distinct cell_4_1 cell_4_2 cell_4_3 cell_5_1 cell_5_2 cell_5_3 cell_6_1 cell_6_2 cell_6_3) true))
(assert
 (and (distinct cell_4_4 cell_4_5 cell_4_6 cell_5_4 cell_5_5 cell_5_6 cell_6_4 cell_6_5 cell_6_6) true))
(assert
 (and (distinct cell_4_7 cell_4_8 cell_4_9 cell_5_7 cell_5_8 cell_5_9 cell_6_7 cell_6_8 cell_6_9) true))
(assert
 (and (distinct cell_7_1 cell_7_2 cell_7_3 cell_8_1 cell_8_2 cell_8_3 cell_9_1 cell_9_2 cell_9_3) true))
(assert
 (and (distinct cell_7_4 cell_7_5 cell_7_6 cell_8_4 cell_8_5 cell_8_6 cell_9_4 cell_9_5 cell_9_6) true))
(assert
 (and (distinct cell_7_7 cell_7_8 cell_7_9 cell_8_7 cell_8_8 cell_8_9 cell_9_7 cell_9_8 cell_9_9) true))
(assert
 (let (($x1214 (and (distinct cell_5_9 cell_6_8 cell_7_7 cell_8_6) true)))
 (let (($x2252 (and (distinct cell_2_9 cell_3_8 cell_4_7 cell_5_6 cell_6_5 cell_7_4 cell_8_3 cell_9_2) true)))
 (let (($x913 (and (distinct cell_1_8 cell_2_7 cell_3_6 cell_4_5 cell_5_4 cell_6_3 cell_7_2 cell_8_1) true)))
 (let (($x2861 (and (distinct cell_1_5 cell_2_4 cell_3_3 cell_4_2) true)))
 (let (($x1558 (and (distinct cell_5_1 cell_6_2 cell_7_3 cell_8_4) true)))
 (let (($x108 (and (distinct cell_2_1 cell_3_2 cell_4_3 cell_5_4 cell_6_5 cell_7_6 cell_8_7 cell_9_8) true)))
 (let (($x70 (and (distinct cell_1_2 cell_2_3 cell_3_4 cell_4_5 cell_5_6 cell_6_7 cell_7_8 cell_8_9) true)))
 (let (($x2846 (and (distinct cell_1_5 cell_2_6 cell_3_7 cell_4_8) true)))
 (and $x2846 $x70 $x108 $x1558 $x2861 $x913 $x2252 $x1214))))))))))
(assert
 (= cell_5_1 2))
(check-sat)
